% Instancia 2: 4 LINACS, 6 pacientes, 3 sesiones

m = 4;
p = 6;
s = 3;

disponible = [| 6, 6, 6, 6, 6, 6, 6, 6, 6, 6, 6, 6, 6, 6, 6, 6, 6, 6, 6, 6, 6
              | 5, 5, 5, 5, 5, 5, 5, 5, 5, 5, 5, 5, 5, 5, 5, 5, 5, 5, 5, 5, 5
              | 4, 4, 4, 4, 4, 4, 4, 4, 4, 4, 4, 4, 4, 4, 4, 4, 4, 4, 4, 4, 4
              | 7, 7, 7, 7, 7, 7, 7, 7, 7, 7, 7, 7, 7, 7, 7, 7, 7, 7, 7, 7, 7 |];

solicitud = [2, 3, 1, 4, 2, 1];

duracion = [| 1, 1, 2
            | 2, 2, 2
            | 1, 1, 1
            | 2, 1, 2
            | 1, 2, 2
            | 2, 1, 1 |];

separacion = [| 0, 1, 2
              | 0, 2, 1
              | 0, 1, 1
              | 0, 2, 1
              | 0, 1, 2
              | 0, 1, 1 |];
